InboundTrucks  = 20;
OutboundTrucks = 20;
InboundDoors   = 4;
OutboundDoors  = 4;
ReleaseTime    = [7,18,17,4,67,97,80,100,94,28,97,21,80,53,90,49,44,111,80,89];
UnloadTime     = [12,13,10,8,33,24,24,27,24,22,10,32,20,12,25,26,24,26,12,19];
LoadTime       = [10,14,13,15,11,17,11,20,17,10,14,22,20,11,17,22,11,18,22,14];
TransferTime   = [| 2,4,0,0,0,0,0,0,8,0,0,0,0,0,0,0,0,0,0,0 | 2,0,1,4,0,0,0,0,0,0,0,3,6,0,0,0,0,0,0,0 | 0,0,0,0,0,0,0,0,0,0,0,0,0,0,0,0,0,0,0,0 | 2,2,2,4,0,0,0,0,0,0,4,0,4,0,0,0,0,5,0,0 | 0,0,0,4,7,8,4,0,0,0,0,0,0,0,0,5,0,0,0,0 | 0,0,0,0,0,7,0,3,0,0,0,5,7,0,3,0,3,0,7,8 | 0,0,7,0,5,4,0,0,0,5,0,0,4,0,4,0,6,0,8,5 | 0,4,0,0,4,0,0,5,7,0,0,0,4,6,5,7,4,0,0,3 | 0,0,0,0,0,0,0,0,0,0,0,6,7,0,0,4,5,6,0,8 | 8,8,5,3,0,3,0,0,0,0,0,5,0,0,6,0,0,0,0,0 | 7,7,0,0,0,0,0,0,0,4,0,4,3,0,8,3,0,0,4,7 | 0,6,5,0,4,0,6,8,0,0,0,4,4,0,0,8,0,0,0,0 | 6,0,0,0,0,0,0,0,0,8,8,0,0,6,0,0,0,3,0,0 | 0,0,0,0,6,4,0,0,5,4,8,0,0,0,0,0,0,0,0,0 | 8,0,0,0,0,0,0,0,3,7,5,0,0,0,4,0,0,8,0,0 | 0,0,0,0,5,0,0,0,0,4,0,3,0,0,0,0,0,0,3,0 | 0,0,3,0,3,0,4,0,3,0,0,8,4,0,0,0,0,4,0,0 | 0,0,8,0,0,4,3,0,4,0,0,0,0,0,0,0,0,0,0,8 | 0,5,0,0,0,6,0,0,7,0,0,0,3,0,5,0,7,0,8,5 | 0,0,5,0,6,0,0,4,0,0,3,0,0,0,5,0,0,3,0,0 |];
